Read MPS format model from file dat/rmp/DER_24_32768_20.mps
Reading time = 1.03 seconds
: 32792 rows, 114760 columns, 2593510 nonzeros
Gurobi Optimizer version 9.0.0 build v9.0.0rc2 (linux64)
Optimize a model with 32792 rows, 114760 columns and 2593510 nonzeros
Model fingerprint: 0x56b12d5a
Coefficient statistics:
  Matrix range     [5e-07, 1e+01]
  Objective range  [2e-01, 1e+03]
  Bounds range     [2e+05, 2e+05]
  RHS range        [1e+00, 1e+00]
Ordering time: 0.02s

Barrier statistics:
 AA' NZ     : 7.430e+05
 Factor NZ  : 1.046e+06 (roughly 70 MBytes of memory)
 Factor Ops : 3.638e+07 (less than 1 second per iteration)
 Threads    : 1

                  Objective                Residual
Iter       Primal          Dual         Primal    Dual     Compl     Time
   0   1.59727731e+09 -9.53881519e+07  1.17e+08 6.83e-03  5.24e+05     1s
   1   3.07195334e+07 -1.96395505e+07  2.17e+06 3.64e-12  9.87e+03     1s
   2   1.21392470e+06 -1.23000466e+07  8.16e+04 3.64e-12  4.70e+02     1s
   3   1.07295808e+05 -9.27571717e+06  4.07e+03 3.64e-12  9.71e+01     1s
   4   4.82441429e+04 -9.50195327e+05  8.92e-10 3.64e-12  8.70e+00     1s
   5   4.79980919e+04  3.03801186e+03  3.23e-10 3.64e-12  3.92e-01     1s
   6   4.74761892e+04  4.15399292e+04  5.47e-10 1.82e-11  5.17e-02     2s
   7   4.68165145e+04  4.54906570e+04  6.44e-10 1.82e-12  1.16e-02     2s
   8   4.65813975e+04  4.59728718e+04  2.86e-09 1.82e-12  5.30e-03     2s
   9   4.64146975e+04  4.61801776e+04  1.01e-09 1.82e-12  2.04e-03     2s
  10   4.63617503e+04  4.62639272e+04  9.29e-10 3.64e-12  8.52e-04     2s
  11   4.63303674e+04  4.62930532e+04  1.29e-09 1.82e-12  3.25e-04     3s
  12   4.63143611e+04  4.62994795e+04  1.15e-09 1.82e-12  1.30e-04     3s
  13   4.63125983e+04  4.63012224e+04  1.25e-09 1.82e-12  9.91e-05     3s
  14   4.63117315e+04  4.63018106e+04  1.63e-09 1.82e-12  8.64e-05     3s
  15   4.63106204e+04  4.63028705e+04  1.56e-09 1.82e-12  6.75e-05     3s
  16   4.63092427e+04  4.63035431e+04  2.52e-09 1.82e-12  4.97e-05     3s
  17   4.63084231e+04  4.63038642e+04  2.15e-09 1.82e-12  3.97e-05     3s
  18   4.63073087e+04  4.63044213e+04  3.90e-09 6.76e-12  2.52e-05     4s
  19   4.63069329e+04  4.63046870e+04  4.98e-09 8.71e-12  1.96e-05     4s
  20   4.63059896e+04  4.63049852e+04  2.36e-08 1.76e-11  8.75e-06     4s
  21   4.63057944e+04  4.63051248e+04  1.38e-08 2.13e-11  5.83e-06     4s
  22   4.63057086e+04  4.63051849e+04  1.78e-08 2.29e-11  4.56e-06     4s
  23   4.63056727e+04  4.63052167e+04  1.90e-08 2.35e-11  3.97e-06     4s
  24   4.63056386e+04  4.63052309e+04  1.94e-08 2.39e-11  3.55e-06     5s
  25   4.63054968e+04  4.63052456e+04  2.38e-08 2.46e-11  2.19e-06     5s
  26   4.63054319e+04  4.63052688e+04  2.17e-08 2.05e-11  1.42e-06     5s
  27   4.63054012e+04  4.63052708e+04  1.99e-08 1.98e-11  1.14e-06     5s
  28   4.63053754e+04  4.63052788e+04  2.34e-08 1.63e-11  8.41e-07     5s
  29   4.63053491e+04  4.63052836e+04  2.66e-08 1.34e-11  5.70e-07     5s
  30   4.63053318e+04  4.63052887e+04  4.47e-08 9.46e-12  3.75e-07     5s
  31   4.63053164e+04  4.63052901e+04  9.75e-08 7.77e-12  2.30e-07     6s
  32   4.63053125e+04  4.63052908e+04  1.37e-07 6.75e-12  1.88e-07     6s
  33   4.63053104e+04  4.63052915e+04  1.75e-07 5.83e-12  1.65e-07     6s
  34   4.63053041e+04  4.63052927e+04  3.04e-07 4.38e-12  9.90e-08     6s
  35   4.63053023e+04  4.63052934e+04  2.11e-07 3.30e-12  7.79e-08     6s
  36   4.63052995e+04  4.63052944e+04  3.83e-07 1.82e-12  4.41e-08     6s
  37   4.63052979e+04  4.63052948e+04  9.44e-07 1.82e-12  2.77e-08     6s
  38   4.63052974e+04  4.63052953e+04  1.65e-06 1.82e-12  1.83e-08     7s
  39   4.63052971e+04  4.63052954e+04  6.92e-07 1.82e-12  1.49e-08     7s
  40   4.63052970e+04  4.63052955e+04  1.36e-06 1.82e-12  1.28e-08     7s
  41   4.63052966e+04  4.63052957e+04  2.60e-06 1.82e-12  8.38e-09     7s
  42   4.63052958e+04  4.63052957e+04  2.29e-05 1.82e-12  8.00e-10     7s
  43   4.63052958e+04  4.63052957e+04  1.32e-05 1.82e-12  6.27e-10     7s
  44   4.63052958e+04  4.63052957e+04  1.23e-05 1.82e-12  3.79e-10     7s
  45   4.63052958e+04  4.63052957e+04  1.43e-05 1.82e-12  3.50e-10     7s
  46   4.63052958e+04  4.63052958e+04  9.93e-06 1.82e-12  2.41e-10     8s
  47   4.63052958e+04  4.63052958e+04  1.02e-05 1.82e-12  1.07e-10     8s
  48   4.63052958e+04  4.63052958e+04  1.07e-04 1.82e-12  5.30e-11     8s
  49   4.63052958e+04  4.63052958e+04  7.37e-05 1.82e-12  1.64e-11     8s
  50   4.63052958e+04  4.63052958e+04  1.85e-04 1.82e-12  1.21e-11     8s
  51   4.63052958e+04  4.63052958e+04  1.21e-04 3.64e-12  8.17e-12     9s
  52   4.63052958e+04  4.63052958e+04  3.77e-04 1.82e-12  8.26e-12     9s

Barrier performed 52 iterations in 8.83 seconds
Sub-optimal termination - objective 4.63059896e+04

Solve time: 8.840082829
Barrier iterations: 52
